NAME : CHRVRP
COMMENT : master instance for CHRVRP
EDGE_WEIGHT_TYPE : EUC_2D
NODE_COORD_SECTION
V100 40.769e+03 71.077e+03
V101 5.537e+03 96.579e+03
V102 78.853e+03 0.422e+03
S0 50.837e+03 68.389e+03
S1 66.390e+03 40.535e+03
D10 87.012e+03 40.237e+03
D11 58.228e+03 11.304e+03
D12 27.884e+03 44.703e+03
D13 18.591e+03 58.545e+03
D14 41.110e+03 16.199e+03
D15 11.738e+03 52.072e+03
D16 68.497e+03 32.605e+03
D17 43.761e+03 69.919e+03
D18 55.623e+03 36.639e+03
D19 36.708e+03 83.637e+03
EOF
